CPXPARAM_Read_DataCheck                          1
Found incumbent of value 0.000000 after 0.00 sec. (0.04 ticks)
Tried aggregator 1 time.
MIP Presolve modified 1 coefficients.
Reduced MIP has 317 rows, 1505 columns, and 7517 nonzeros.
Reduced MIP has 1505 binaries, 0 generals, 0 SOSs, and 0 indicators.
Presolve time = 0.00 sec. (3.14 ticks)
Probing time = 0.00 sec. (2.91 ticks)
Tried aggregator 1 time.
Reduced MIP has 317 rows, 1505 columns, and 7517 nonzeros.
Reduced MIP has 1505 binaries, 0 generals, 0 SOSs, and 0 indicators.
Presolve time = 0.02 sec. (3.72 ticks)
Probing time = 0.00 sec. (3.00 ticks)
Clique table members: 4864.
MIP emphasis: balance optimality and feasibility.
MIP search method: dynamic search.
Parallel mode: deterministic, using up to 4 threads.
Root relaxation solution time = 0.02 sec. (7.03 ticks)

        Nodes                                         Cuts/
   Node  Left     Objective  IInf  Best Integer    Best Bound    ItCnt     Gap

*     0+    0                            0.0000     9232.0000              --- 
*     0+    0                          807.0000     9232.0000              --- 
      0     0     3137.7333     5      807.0000     3137.7333      437  288.81%
      0     0     2606.2953   220      807.0000     Cuts: 179      744  222.96%
*     0+    0                         1498.0000     2606.2953            73.99%
*     0+    0                         2116.0000     2606.2953            23.17%
      0     0        cutoff           2116.0000     2116.0000     1041    0.00%
Elapsed time = 0.19 sec. (144.58 ticks, tree = 0.01 MB, solutions = 4)

Clique cuts applied:  271
Cover cuts applied:  6
Implied bound cuts applied:  3
Mixed integer rounding cuts applied:  4
Zero-half cuts applied:  4

Root node processing (before b&c):
  Real time             =    0.19 sec. (144.71 ticks)
Parallel b&c, 4 threads:
  Real time             =    0.00 sec. (0.00 ticks)
  Sync time (average)   =    0.00 sec.
  Wait time (average)   =    0.00 sec.
                          ------------
Total (root+branch&cut) =    0.19 sec. (144.71 ticks)
